webassembly/ejemplos_dzn/16/folder16_json_98.dzn
TERM = { '.', 's(5)', 's(2)', 's(4)', 'in_1', 'local_0', 'local_1', 'in_6', 'in_2', 'in_4', 'in_3', 'in_8', 's(6)', 's(1)', 's(0)', 'in_7', 'in_5', 's(3)', 'in_0'};
null = '.';
s = 16;
n = 14;
ndeps = 6;
max_registers_sz = 4;
NR = 1;
registers = [|'local_0', 'in_4'|];
dependencies = [|'i32.load8_u_4', 'i32.store_10', |'i32.store_10', 'i32.load8_u_12', |'i32.store8_13', 'i32.store16_15', |'i32.load8_s_7', 'i32.store_10', |'i32.load16_s_8', 'i32.store_10', |'i32.load8_u_12', 'i32.store8_13'|];
GET_ENUM = { GET1, GET2, GET3, GET4, GET5};
SET_ENUM = { SET1, SET2, SET3, SET4, SET5};
TEE_ENUM = { TEE1, TEE2, TEE3, TEE4, TEE5};
N = 11;
OP = { 'i32.load8_u_4', 'i32.load8_s_7', 'i32.load16_s_8', 'i32.sub_0', 'i32.add_0', 'i32.store_10', 'i32.load8_u_12', 'i32.store8_13', 'i32.add_1', 'i32.store16_15', 'local.get_0' };
in_ops = [1, 1, 1, 2, 2, 2, 1, 2, 2, 2, 0 ];
out_ops = [1, 1, 1, 1, 1, 0, 1, 0, 1, 0, 1 ];
in1 = ['local_1', 's(1)', 's(2)', 'in_1', 's(3)', 's(4)', 'in_4', 's(5)', 'in_6', 's(6)', '.' ];
in2 = ['.', '.', '.', 'in_2', 's(0)', 'in_3', '.', 'in_5', 'in_7', 'in_8', '.' ];
in3 = ['.', '.', '.', '.', '.', '.', '.', '.', '.', '.', '.' ];
out1 = ['s(1)', 's(2)', 's(3)', 's(0)', 's(4)', '.', 's(5)', '.', 's(6)', '.', 'local_1' ];
out2 = ['.', '.', '.', '.', '.', '.', '.', '.', '.', '.', '.' ];
out3 = ['.', '.', '.', '.', '.', '.', '.', '.', '.', '.', '.' ];
comm = [false, false, false, false, true, false, false, false, true, false, false ];
gas = [1, 1, 1, 1, 1, 1, 1, 1, 1, 1, 1 ];
sz = [1, 1, 1, 1, 1, 1, 1, 1, 1, 1, 1 ];
stor = [false, false, false, false, false, true, false, true, false, true, false ];
lb = [ 1, 1, 1, 1, 1, 1, 1, 1, 1, 1, 1 ];
ub = [ 16, 16, 16, 16, 16, 16, 16, 16, 16, 16, 16 ];
startstack = [ 'in_0', 'in_1', 'in_2', 'in_3', 'in_4', 'in_5', 'in_6', 'in_7', 'in_8', null, null, null, null, null ];
endstack = [ null, null, null, null, null, null, null, null, null, null, null, null, null, null ];
