webassembly/ejemplos_results/folder16_json_98.txt
value = 16;
fgas = [1, 1, 1, 1, 1, 1, 1, 1, 1, 1, 1, 1, 1, 1, 1, 1];
fsize = [1, 1, 1, 1, 1, 1, 1, 1, 1, 1, 1, 1, 1, 1, 1, 1];
states = 
[|    in_0,   in_1, in_2, in_3, in_4, in_5, in_6, in_7, in_8, '.', '.', '.', '.',    '.'
 |    in_1,   in_2, in_3, in_4, in_5, in_6, in_7, in_8,  '.', '.', '.', '.', '.',    '.'
 |  's(0)',   in_0, in_4, in_5, in_6, in_7, in_8,  '.',  '.', '.', '.', '.', '.', 's(2)'
 | local_1,   in_0, in_0, in_4, in_5, in_6, in_7, in_8,  '.', '.', '.', '.', '.',    '.'
 |  's(1)', 's(3)', in_0, in_4, in_5, in_6, in_7, in_8,  '.', '.', '.', '.', '.',    '.'
 |  's(2)', 's(6)', in_0, in_4, in_5, in_6, in_7, in_8,  '.', '.', '.', '.', '.',    '.'
 |  's(3)', 's(0)', in_0, in_4, in_5, in_6, in_7, in_8,  '.', '.', '.', '.', '.',    '.'
 |  's(4)',   in_3, in_4, in_5, in_6, in_7, in_8,  '.',  '.', '.', '.', '.', '.',    '.'
 |    in_4,   in_5, in_6, in_7, in_8,  '.',  '.',  '.',  '.', '.', '.', '.', '.',    '.'
 |  's(5)',   in_5, in_6, in_7, in_8,  '.',  '.',  '.',  '.', '.', '.', '.', '.',    '.'
 |    in_6,   in_7, in_8,  '.',  '.',  '.',  '.',  '.',  '.', '.', '.', '.', '.',    '.'
 |  's(6)',   in_8,  '.',  '.',  '.',  '.',  '.',  '.',  '.', '.', '.', '.', '.',    '.'
 | local_1,    '.',  '.',  '.',  '.',  '.',  '.',  '.',  '.', '.', '.', '.', '.',    '.'
 |  's(1)',   in_0,  '.',  '.',  '.',  '.',  '.',  '.',  '.', '.', '.', '.', '.',    '.'
 |  's(2)',   in_4,  '.',  '.',  '.',  '.',  '.',  '.',  '.', '.', '.', '.', '.',    '.'
 |    in_4,    '.',  '.',  '.',  '.',  '.',  '.',  '.',  '.', '.', '.', '.', '.',    '.'
 |     '.',    '.',  '.',  '.',  '.',  '.',  '.',  '.',  '.', '.', '.', '.', '.',    '.'
 |];
register_states = 
[| local_0, '.', '.', '.', '.'
 |    in_0, '.', '.', '.', '.'
 |    in_0, '.', '.', '.', '.'
 |    in_0, '.', '.', '.', '.'
 |    in_0, '.', '.', '.', '.'
 |    in_0, '.', '.', '.', '.'
 |    in_0, '.', '.', '.', '.'
 |    in_0, '.', '.', '.', '.'
 |    in_0, '.', '.', '.', '.'
 |    in_0, '.', '.', '.', '.'
 |    in_0, '.', '.', '.', '.'
 |    in_0, '.', '.', '.', '.'
 |    in_0, '.', '.', '.', '.'
 |    in_0, '.', '.', '.', '.'
 |    in_0, '.', '.', '.', '.'
 |  's(2)', '.', '.', '.', '.'
 |    in_4, '.', '.', '.', '.'
 |];
program = [S(SET1), O('i32.sub_0'), O('local.get_0'), O('i32.load8_u_4'), O('i32.load8_s_7'), O('i32.load16_s_8'), O('i32.add_0'), O('i32.store_10'), O('i32.load8_u_12'), O('i32.store8_13'), O('i32.add_1'), O('i32.store16_15'), O('i32.load8_u_4'), O('i32.load8_s_7'), S(SET1), S(SET1)];
% time elapsed: 0.39 s
----------
value = 15;
fgas = [1, 1, 1, 1, 1, 1, 1, 1, 1, 1, 1, 1, 1, 1, 1, 0];
fsize = [1, 1, 1, 1, 1, 1, 1, 1, 1, 1, 1, 1, 1, 1, 1, 1];
states = 
[|    in_0,   in_1,   in_2, in_3, in_4, in_5, in_6, in_7, in_8, '.', '.', '.', '.',  '.'
 |    in_1,   in_2,   in_3, in_4, in_5, in_6, in_7, in_8,  '.', '.', '.', '.', '.',  '.'
 |  's(0)', 's(2)',   in_4, in_5, in_6, in_7, in_8,  '.',  '.', '.', '.', '.', '.', in_8
 | local_1,   in_4, 's(2)', in_4, in_5, in_6, in_7, in_8,  '.', '.', '.', '.', '.',  '.'
 |    in_4, 's(2)',   in_4, in_5, in_6, in_7, in_8,  '.',  '.', '.', '.', '.', '.',  '.'
 |  's(2)',   in_4,   in_5, in_6, in_7, in_8,  '.',  '.',  '.', '.', '.', '.', '.',  '.'
 |  's(3)', 's(0)',   in_5, in_6, in_7, in_8,  '.',  '.',  '.', '.', '.', '.', '.',  '.'
 |  's(4)',   in_3,   in_6, in_7, in_8,  '.',  '.',  '.',  '.', '.', '.', '.', '.',  '.'
 |    in_6,   in_7,   in_8,  '.',  '.',  '.',  '.',  '.',  '.', '.', '.', '.', '.',  '.'
 |  's(6)',   in_8,    '.',  '.',  '.',  '.',  '.',  '.',  '.', '.', '.', '.', '.',  '.'
 |    in_4,    '.',    '.',  '.',  '.',  '.',  '.',  '.',  '.', '.', '.', '.', '.',  '.'
 |  's(5)',   in_5,    '.',  '.',  '.',  '.',  '.',  '.',  '.', '.', '.', '.', '.',  '.'
 | local_1,    '.',    '.',  '.',  '.',  '.',  '.',  '.',  '.', '.', '.', '.', '.',  '.'
 |  's(1)',   in_0,    '.',  '.',  '.',  '.',  '.',  '.',  '.', '.', '.', '.', '.',  '.'
 |  's(2)',    '.',    '.',  '.',  '.',  '.',  '.',  '.',  '.', '.', '.', '.', '.',  '.'
 |     '.',    '.',    '.',  '.',  '.',  '.',  '.',  '.',  '.', '.', '.', '.', '.',  '.'
 |     '.',    '.',    '.',  '.',  '.',  '.',  '.',  '.',  '.', '.', '.', '.', '.',  '.'
 |];
register_states = 
[| local_0, '.', '.', '.', '.'
 |    in_0, '.', '.', '.', '.'
 |    in_0, '.', '.', '.', '.'
 |    in_0, '.', '.', '.', '.'
 | local_1, '.', '.', '.', '.'
 |    in_4, '.', '.', '.', '.'
 |    in_4, '.', '.', '.', '.'
 |    in_4, '.', '.', '.', '.'
 |    in_4, '.', '.', '.', '.'
 |    in_4, '.', '.', '.', '.'
 |    in_4, '.', '.', '.', '.'
 |    in_4, '.', '.', '.', '.'
 |    in_4, '.', '.', '.', '.'
 |    in_4, '.', '.', '.', '.'
 |    in_4, '.', '.', '.', '.'
 |    in_4, '.', '.', '.', '.'
 |    in_4, '.', '.', '.', '.'
 |];
program = [S(SET1), O('i32.sub_0'), O('local.get_0'), S(SET1), S(SET1), O('i32.load16_s_8'), O('i32.add_0'), O('i32.store_10'), O('i32.add_1'), O('i32.store16_15'), O('i32.load8_u_12'), O('i32.store8_13'), O('i32.load8_u_4'), O('i32.load8_s_7'), G(GET4), NOP];
% time elapsed: 0.39 s
----------
value = 14;
fgas = [1, 1, 1, 1, 1, 1, 1, 1, 1, 1, 1, 1, 1, 1, 0, 0];
fsize = [1, 1, 1, 1, 1, 1, 1, 1, 1, 1, 1, 1, 1, 1, 1, 1];
states = 
[|    in_0,   in_1, in_2, in_3, in_4, in_5, in_6, in_7, in_8, '.', '.', '.', '.',    '.'
 |    in_1,   in_2, in_3, in_4, in_5, in_6, in_7, in_8,  '.', '.', '.', '.', '.',    '.'
 |  's(0)', 's(3)', in_4, in_5, in_6, in_7, in_8,  '.',  '.', '.', '.', '.', '.',    '.'
 |  's(4)',   in_3, in_5, in_6, in_7, in_8,  '.',  '.',  '.', '.', '.', '.', '.',    '.'
 |    in_4,   in_6, in_7, in_8,  '.',  '.',  '.',  '.',  '.', '.', '.', '.', '.',    '.'
 |    in_6,   in_7, in_8,  '.',  '.',  '.',  '.',  '.',  '.', '.', '.', '.', '.',    '.'
 |  's(6)',   in_8,  '.',  '.',  '.',  '.',  '.',  '.',  '.', '.', '.', '.', '.',    '.'
 |    in_4,    '.',  '.',  '.',  '.',  '.',  '.',  '.',  '.', '.', '.', '.', '.',    '.'
 |  's(5)',   in_5,  '.',  '.',  '.',  '.',  '.',  '.',  '.', '.', '.', '.', '.',    '.'
 |  's(2)',    '.',  '.',  '.',  '.',  '.',  '.',  '.',  '.', '.', '.', '.', '.', 's(1)'
 |  's(3)',    '.',  '.',  '.',  '.',  '.',  '.',  '.',  '.', '.', '.', '.', '.', 's(1)'
 | local_1,   in_0,  '.',  '.',  '.',  '.',  '.',  '.',  '.', '.', '.', '.', '.',    '.'
 |  's(1)', 's(3)',  '.',  '.',  '.',  '.',  '.',  '.',  '.', '.', '.', '.', '.',    '.'
 |  's(2)',    '.',  '.',  '.',  '.',  '.',  '.',  '.',  '.', '.', '.', '.', '.',    '.'
 |     '.',    '.',  '.',  '.',  '.',  '.',  '.',  '.',  '.', '.', '.', '.', '.',    '.'
 |     '.',    '.',  '.',  '.',  '.',  '.',  '.',  '.',  '.', '.', '.', '.', '.',    '.'
 |     '.',    '.',  '.',  '.',  '.',  '.',  '.',  '.',  '.', '.', '.', '.', '.',    '.'
 |];
register_states = 
[| local_0, '.', '.', '.', '.'
 |    in_0, '.', '.', '.', '.'
 |    in_0, '.', '.', '.', '.'
 |    in_0, '.', '.', '.', '.'
 |    in_0, '.', '.', '.', '.'
 |    in_4, '.', '.', '.', '.'
 |    in_4, '.', '.', '.', '.'
 |    in_4, '.', '.', '.', '.'
 |    in_4, '.', '.', '.', '.'
 |    in_4, '.', '.', '.', '.'
 |    in_4, '.', '.', '.', '.'
 |    in_4, '.', '.', '.', '.'
 |    in_4, '.', '.', '.', '.'
 |    in_4, '.', '.', '.', '.'
 |    in_4, '.', '.', '.', '.'
 |    in_4, '.', '.', '.', '.'
 |    in_4, '.', '.', '.', '.'
 |];
program = [S(SET1), O('i32.sub_0'), O('i32.add_0'), O('i32.store_10'), S(SET1), O('i32.add_1'), O('i32.store16_15'), O('i32.load8_u_12'), O('i32.store8_13'), O('i32.load16_s_8'), O('local.get_0'), O('i32.load8_u_4'), O('i32.load8_s_7'), G(GET5), NOP, NOP];
% time elapsed: 0.46 s
----------
value = 13;
fgas = [2, 1, 1, 1, 1, 1, 1, 1, 1, 1, 1, 1, 1, 0, 0, 0];
fsize = [1, 1, 1, 1, 1, 1, 1, 1, 1, 1, 1, 1, 1, 1, 1, 1];
states = 
[|    in_0,   in_1, in_2, in_3, in_4, in_5, in_6, in_7, in_8, '.', '.', '.', '.',  '.'
 |    in_1,   in_2, in_3, in_4, in_5, in_6, in_7, in_8,  '.', '.', '.', '.', '.',  '.'
 |  's(0)',   in_0, in_4, in_5, in_6, in_7, in_8,  '.',  '.', '.', '.', '.', '.', in_0
 | local_1,   in_0, in_0, in_4, in_5, in_6, in_7, in_8,  '.', '.', '.', '.', '.',  '.'
 |  's(1)', 's(3)', in_0, in_4, in_5, in_6, in_7, in_8,  '.', '.', '.', '.', '.',  '.'
 |  's(2)', 's(3)', in_0, in_4, in_5, in_6, in_7, in_8,  '.', '.', '.', '.', '.',  '.'
 |  's(3)', 's(0)', in_0, in_4, in_5, in_6, in_7, in_8,  '.', '.', '.', '.', '.',  '.'
 |  's(4)',   in_3, in_4, in_5, in_6, in_7, in_8,  '.',  '.', '.', '.', '.', '.',  '.'
 |    in_4,   in_5, in_6, in_7, in_8,  '.',  '.',  '.',  '.', '.', '.', '.', '.',  '.'
 |  's(5)',   in_5, in_6, in_7, in_8,  '.',  '.',  '.',  '.', '.', '.', '.', '.',  '.'
 |    in_6,   in_7, in_8,  '.',  '.',  '.',  '.',  '.',  '.', '.', '.', '.', '.',  '.'
 |  's(6)',   in_8,  '.',  '.',  '.',  '.',  '.',  '.',  '.', '.', '.', '.', '.',  '.'
 |    in_4,    '.',  '.',  '.',  '.',  '.',  '.',  '.',  '.', '.', '.', '.', '.',  '.'
 |     '.',    '.',  '.',  '.',  '.',  '.',  '.',  '.',  '.', '.', '.', '.', '.',  '.'
 |     '.',    '.',  '.',  '.',  '.',  '.',  '.',  '.',  '.', '.', '.', '.', '.',  '.'
 |     '.',    '.',  '.',  '.',  '.',  '.',  '.',  '.',  '.', '.', '.', '.', '.',  '.'
 |     '.',    '.',  '.',  '.',  '.',  '.',  '.',  '.',  '.', '.', '.', '.', '.',  '.'
 |];
register_states = 
[| local_0, '.', '.', '.', '.'
 | local_0, '.', '.', '.', '.'
 | local_0, '.', '.', '.', '.'
 | local_0, '.', '.', '.', '.'
 | local_0, '.', '.', '.', '.'
 | local_0, '.', '.', '.', '.'
 | local_0, '.', '.', '.', '.'
 | local_0, '.', '.', '.', '.'
 | local_0, '.', '.', '.', '.'
 | local_0, '.', '.', '.', '.'
 | local_0, '.', '.', '.', '.'
 | local_0, '.', '.', '.', '.'
 | local_0, '.', '.', '.', '.'
 |    in_4, '.', '.', '.', '.'
 |    in_4, '.', '.', '.', '.'
 |    in_4, '.', '.', '.', '.'
 |    in_4, '.', '.', '.', '.'
 |];
program = [POP, O('i32.sub_0'), O('local.get_0'), O('i32.load8_u_4'), O('i32.load8_s_7'), O('i32.load16_s_8'), O('i32.add_0'), O('i32.store_10'), O('i32.load8_u_12'), O('i32.store8_13'), O('i32.add_1'), O('i32.store16_15'), S(SET1), NOP, NOP, NOP];
% time elapsed: 0.48 s
----------
==========
% time elapsed: 0.52 s
% [value > 12]
